nNurses = 166;
nHours = 30;
minHours = 4;
maxHours = 17;
maxConsec = 16;
maxPresence = 21;
demand = [9, 10, 7, 7, 12, 8, 7, 9, 6, 8, 10, 12, 16, 12, 7, 10, 10, 12, 11, 6, 8, 13, 11, 7, 12, 9, 9, 13, 12, 13];
